20	5
0	9	3	4	5	9	1	7	6	2	8
1	4	11	14	12	17
2	6	20	17	11	16	18	13
3	0
4	2	19	17
5	2	19	17
6	3	13	11	10
7	2	19	17
8	3	13	18	15
9	4	20	19	11	10
10	2	12	15
11	1	21
12	1	21
13	1	21
14	1	21
15	1	21
16	1	21
17	1	21
18	1	21
19	1	21
20	1	21
21	0
0	0	0	0	0	0	0
1	4	1	0	3	1	1
2	2	0	0	0	0	3
3	9	0	0	3	0	3
4	6	0	1	3	4	5
5	3	2	5	0	5	1
6	7	2	0	0	0	0
7	7	1	4	0	5	2
8	6	1	3	0	0	4
9	7	0	2	0	0	5
10	6	0	0	3	0	3
11	6	3	3	3	0	5
12	6	2	0	4	0	0
13	6	0	0	3	0	0
14	8	0	4	0	2	0
15	3	1	0	1	0	0
16	7	0	0	0	1	0
17	6	3	3	0	2	0
18	5	5	0	0	0	1
19	1	0	0	0	0	3
20	4	5	3	4	1	4
21	0	0	0	0	0	0
7	8	7	8	10
